SPARKNaCl/why3-z3/sparknacl-sign.adb_876_22_length_check_1.smt2
;; produced by z3_gnatprove.drv ;;
(set-info :smt-lib-version 2.5)
(set-info :source |VC generated by SPARK 2014|)
(set-info :category industrial)
(set-info :status unknown)
;;; generated by SMT-LIB2 driver
;;; SMT-LIB2 driver: bit-vectors, common part
;;; SMT-LIB2: integer arithmetic
;; "length"
(define-fun length ((x Int) (y Int)) Int
  (ite (<= x y) (+ (- y x) 1) 0))

(declare-sort byte 0)

;; "to_rep"
(declare-fun to_rep (byte) (_ BitVec 8))

;; "of_rep"
(declare-fun of_rep ((_ BitVec 8)) byte)

;; "inversion_axiom"
(assert
  (forall ((x byte)) (! (= (of_rep (to_rep x)) x) :pattern ((to_rep x)) )))

;; "range_axiom"
(assert true)

;; "coerce_axiom"
(assert
  (forall ((x (_ BitVec 8)))
    (! (= (to_rep (of_rep x)) x) :pattern ((to_rep (of_rep x))) )))

(declare-sort map1 0)

(declare-datatypes ()
  ((map__ref (map__refqtmk (map__content map1)))))

;; "has_bounds"
(declare-fun has_bounds (map1
  Int
  Int) Bool)

;; "get"
(declare-fun get (map1
  Int) byte)

;; "set"
(declare-fun set (map1
  Int
  byte) map1)

;; "set_eq"
(assert
  (forall ((a map1) (i Int) (v byte))
    (! (= (get (set a i v) i) v) :pattern ((set a i v)) )))

;; "set_neq"
(assert
  (forall ((a map1) (i Int) (v byte))
    (! (forall ((j Int))
         (! (=> (not (= i j)) (= (get (set a i v) j) (get a j))) :pattern (
         (get
           a
           j)) :pattern ((get (set a i v) j)) )) :pattern ((set a i v)) )))

;; "set_has_bounds"
(assert
  (forall ((a map1) (i Int) (f Int) (l Int) (v byte))
    (! (=>
         (and (<= f i) (<= i l))
         (=> (has_bounds a f l) (has_bounds (set a i v) f l))) :pattern (
    (has_bounds
      (set a i v)
      f
      l)) )))

;; "slide"
(declare-fun slide (map1
  Int
  Int) map1)

;; "slide_eq"
(assert
  (forall ((a map1) (first Int))
    (! (= (slide a first first) a) :pattern ((slide a first first)) )))

;; "slide_def"
(assert
  (forall ((a map1) (old_first Int) (new_first Int))
    (! (and
         (forall ((i Int))
           (! (= (get (slide a old_first new_first) i) (get
                                                         a
                                                         (- i (- new_first old_first)))) :pattern (
           (get
             (slide a old_first new_first)
             i)) ))
         (forall ((new_last Int))
           (! (=>
                (has_bounds a old_first (- new_last (- new_first old_first)))
                (has_bounds (slide a old_first new_first) new_first new_last)) :pattern (
           (has_bounds
             (slide a old_first new_first)
             new_first
             new_last)) ))) :pattern ((slide a old_first new_first)) )))

;; "slice"
(declare-fun slice (map1
  Int
  Int) map1)

;; "slice_eq"
(assert
  (forall ((a map1) (f Int) (l Int))
    (! (=> (has_bounds a f l) (= (slice a f l) a)) :pattern ((slice a f l)
    (has_bounds a f l)) )))

;; "slice_slice"
(assert
  (forall ((a map1) (f1 Int) (l1 Int) (f2 Int) (l2 Int))
    (! (=>
         (and (<= f1 f2) (<= l2 l1))
         (= (slice (slice a f1 l1) f2 l2) (slice a f2 l2))) :pattern (
    (slice
      (slice a f1 l1)
      f2
      l2)) )))

;; "slice_def"
(assert
  (forall ((a map1) (f Int) (l Int))
    (! (forall ((i Int))
         (! (=> (and (<= f i) (<= i l)) (= (get (slice a f l) i) (get a i))) :pattern (
         (get
           (slice a f l)
           i)) :pattern ((get a i)) )) :pattern ((slice a f l)) )))

;; "slice_has_bounds"
(assert
  (forall ((a map1) (f Int) (l Int))
    (! (has_bounds (slice a f l) f l) :pattern ((has_bounds
                                                  (slice a f l)
                                                  f
                                                  l)) )))

;; "concat"
(declare-fun concat1 (map1
  Int
  Int
  map1
  Int
  Int
  Int) map1)

;; "concat_def"
(assert
  (forall ((a map1) (b map1) (a_first Int) (a_last Int) (b_first Int) (b_last Int) (new_last Int))
    (! (and
         (=>
           (<= a_first a_last)
           (=>
             (<= a_last new_last)
             (has_bounds
               (concat1 a a_first a_last b b_first b_last new_last)
               a_first
               new_last)))
         (forall ((i Int))
           (! (and
                (=>
                  (and (<= a_first i) (<= i a_last))
                  (= (get
                       (concat1 a a_first a_last b b_first b_last new_last)
                       i) (get a i)))
                (=>
                  (and (< a_last i) (<= i new_last))
                  (= (get
                       (concat1 a a_first a_last b b_first b_last new_last)
                       i) (get b (+ (- i a_last) (- b_first 1)))))) :pattern (
           (get
             (concat1 a a_first a_last b b_first b_last new_last)
             i)) ))) :pattern ((concat1
                                 a
                                 a_first
                                 a_last
                                 b
                                 b_first
                                 b_last
                                 new_last)) )))

(declare-const sk_raw map1)

(declare-datatypes ()
  ((us_split_fields
   (us_split_fieldsqtmk (rec__ada___sparknacl__sign__signing_pk__f map1)))))

(declare-datatypes ()
  ((us_split_fields__ref
   (us_split_fields__refqtmk (us_split_fields__content us_split_fields)))))

(declare-datatypes ()
  ((us_rep (us_repqtmk (us_split_fields1 us_split_fields)))))

;; "dynamic_invariant"
(define-fun dynamic_invariant ((temp___expr_531 us_rep) (temp___is_init_527 Bool) (temp___skip_constant_528 Bool) (temp___do_toplevel_529 Bool) (temp___do_typ_inv_530 Bool)) Bool
  (has_bounds
    (rec__ada___sparknacl__sign__signing_pk__f
      (us_split_fields1 temp___expr_531))
    0
    31))

(declare-datatypes ()
  ((us_split_fields2
   (us_split_fieldsqtmk1 (rec__ada___sparknacl__sign__signing_sk__f map1)))))

(declare-datatypes ()
  ((us_split_fields__ref1
   (us_split_fields__refqtmk1 (us_split_fields__content1 us_split_fields2)))))

(declare-datatypes ()
  ((us_rep1 (us_repqtmk1 (us_split_fields3 us_split_fields2)))))

;; "dynamic_invariant"
(define-fun dynamic_invariant1 ((temp___expr_581 us_rep1) (temp___is_init_577 Bool) (temp___skip_constant_578 Bool) (temp___do_toplevel_579 Bool) (temp___do_typ_inv_580 Bool)) Bool
  (has_bounds
    (rec__ada___sparknacl__sign__signing_sk__f
      (us_split_fields3 temp___expr_581))
    0
    63))

(declare-sort tinteger_32B 0)

;; "tinteger_32B'int"
(declare-fun tinteger_32Bqtint (tinteger_32B) Int)

;; "tinteger_32B'axiom"
(assert
  (forall ((i tinteger_32B))
    (and
      (<= (- 2147483648) (tinteger_32Bqtint i))
      (<= (tinteger_32Bqtint i) 2147483647))))

;; "in_range"
(define-fun in_range ((x Int)) Bool
  (and (<= (- 2147483648) x) (<= x 2147483647)))

;; "to_rep"
(define-fun to_rep1 ((x tinteger_32B)) Int
  (tinteger_32Bqtint x))

;; "of_rep"
(declare-fun of_rep1 (Int) tinteger_32B)

;; "inversion_axiom"
(assert
  (forall ((x tinteger_32B))
    (! (= (of_rep1 (to_rep1 x)) x) :pattern ((to_rep1 x)) )))

;; "range_axiom"
(assert
  (forall ((x tinteger_32B))
    (! (in_range (to_rep1 x)) :pattern ((to_rep1 x)) )))

;; "coerce_axiom"
(assert
  (forall ((x Int))
    (! (=> (in_range x) (= (to_rep1 (of_rep1 x)) x)) :pattern ((to_rep1
                                                                 (of_rep1 x))) )))

;; "in_range"
(define-fun in_range1 ((x Int)) Bool
  (and (<= 0 x) (<= x 2147483647)))

(declare-datatypes ()
  ((t (tqtmk (rec__first tinteger_32B)(rec__last tinteger_32B)))))

;; "mk"
(declare-fun mk (Int
  Int) t)

;; "mk_def"
(assert
  (forall ((f Int) (l Int))
    (! (=>
         (in_range f)
         (=>
           (in_range l)
           (and
             (= (to_rep1 (rec__first (mk f l))) f)
             (= (to_rep1 (rec__last (mk f l))) l)))) :pattern ((mk f l)) )))

(declare-datatypes ()
  ((us_t (us_tqtmk (elts map1)(rt t)))))

;; "of_array"
(define-fun of_array ((a map1) (f Int) (l Int)) us_t
  (us_tqtmk a (mk f l)))

(declare-sort gf16_normal_limb 0)

;; "to_rep"
(declare-fun to_rep2 (gf16_normal_limb) (_ BitVec 16))

;; "of_rep"
(declare-fun of_rep2 ((_ BitVec 16)) gf16_normal_limb)

;; "inversion_axiom"
(assert
  (forall ((x gf16_normal_limb))
    (! (= (of_rep2 (to_rep2 x)) x) :pattern ((to_rep2 x)) )))

;; "range_axiom"
(assert true)

;; "coerce_axiom"
(assert
  (forall ((x (_ BitVec 16)))
    (! (= (to_rep2 (of_rep2 x)) x) :pattern ((to_rep2 (of_rep2 x))) )))

(declare-sort map2 0)

;; "has_bounds"
(declare-fun has_bounds1 (map2
  Int
  Int) Bool)

(declare-sort map3 0)

;; "has_bounds"
(declare-fun has_bounds2 (map3
  Int
  Int) Bool)

;; "get"
(declare-fun get1 (map3
  Int) map2)

;; "dynamic_invariant"
(define-fun dynamic_invariant2 ((temp___expr_683 map3) (temp___is_init_679 Bool) (temp___skip_constant_680 Bool) (temp___do_toplevel_681 Bool) (temp___do_typ_inv_682 Bool)) Bool
  (and
    (has_bounds2 temp___expr_683 0 3)
    (forall ((temp___684 Int))
      (=>
        (and (<= 0 temp___684) (<= temp___684 3))
        (has_bounds1 (get1 temp___expr_683 temp___684) 0 15)))))

;; "scalarbase"
(declare-fun scalarbase (map1) map3)

;; "scalarbase__function_guard"
(declare-fun scalarbase__function_guard (map3
  map1) Bool)

;; "pack"
(declare-fun pack (map3) map1)

;; "pack__function_guard"
(declare-fun pack__function_guard (map1
  map3) Bool)

(declare-const pk__split_fields map1)

(declare-const sk__split_fields map1)

(declare-const d map1)

(declare-const lpk map1)

;; "lpk'unused"
(define-fun lpkqtunused () map__ref
  (map__refqtmk lpk))

;; "d'unused"
(define-fun dqtunused () map__ref
  (map__refqtmk d))

;; "sk__split_fields'unused"
(define-fun sk__split_fieldsqtunused () us_split_fields__ref1
  (us_split_fields__refqtmk1 (us_split_fieldsqtmk1 sk__split_fields)))

;; "pk__split_fields'unused"
(define-fun pk__split_fieldsqtunused () us_split_fields__ref
  (us_split_fields__refqtmk (us_split_fieldsqtmk pk__split_fields)))

;; "Assume"
(assert (has_bounds sk_raw 0 31))

;; "Assume"
(assert
  (dynamic_invariant
    (us_repqtmk (us_split_fieldsqtmk pk__split_fields))
    false
    false
    true
    true))

;; "Assume"
(assert
  (dynamic_invariant1
    (us_repqtmk1 (us_split_fieldsqtmk1 sk__split_fields))
    false
    false
    true
    true))

;; "Assume"
(assert true)

;; "Assume"
(assert (has_bounds d 0 63))

;; "Assume"
(assert true)

;; "Assume"
(assert (has_bounds lpk 0 31))

;; "map__content'result'unused"
(define-fun map__contentqtresultqtunused () map1
  d)

;; "param__output'unused"
(define-fun param__outputqtunused () map__ref
  (map__refqtmk d))

;; "map__ref'mk'result'unused"
(define-fun map__refqtmkqtresultqtunused () map__ref
  (map__refqtmk d))

;; "of_array'result'unused"
(define-fun of_arrayqtresultqtunused () us_t
  (of_array sk_raw 0 31))

(declare-const param__output map1)

;; "param__output'unused"
(define-fun param__outputqtunused1 () map__ref
  (map__refqtmk param__output))

;; "H"
(assert (has_bounds param__output 0 63))

;; "H"
(assert true)

;; "H"
(assert true)

;; "map__content'result'unused"
(define-fun map__contentqtresultqtunused1 () map1
  param__output)

(declare-const d1 map1)

;; "d'unused"
(define-fun dqtunused1 () map__ref
  (map__refqtmk d1))

;; "H"
(assert (= d1 param__output))

;; "map__content'result'unused"
(define-fun map__contentqtresultqtunused2 () map1
  d1)

;; "o"
(define-fun o () byte
  (get d1 0))

;; "get'result'unused"
(define-fun getqtresultqtunused () byte
  o)

(declare-const o1 (_ BitVec 8))

;; "Ensures"
(assert (= (to_rep o) o1))

;; "to_rep'result'unused"
(define-fun to_repqtresultqtunused () (_ BitVec 8)
  o1)

;; "o"
(define-fun o2 () (_ BitVec 8)
  (bvand o1 #xF8))

;; "bw_and'result'unused"
(define-fun bw_andqtresultqtunused () (_ BitVec 8)
  o2)

(declare-const o3 byte)

;; "Ensures"
(assert (= (to_rep o3) o2))

;; "of_rep'result'unused"
(define-fun of_repqtresultqtunused () byte
  o3)

;; "map__content'result'unused"
(define-fun map__contentqtresultqtunused3 () map1
  d1)

;; "o"
(define-fun o4 () map1
  (set d1 0 o3))

;; "set'result'unused"
(define-fun setqtresultqtunused () map1
  o4)

(declare-const d2 map1)

;; "d'unused"
(define-fun dqtunused2 () map__ref
  (map__refqtmk d2))

;; "H"
(assert (= d2 o4))

;; "map__content'result'unused"
(define-fun map__contentqtresultqtunused4 () map1
  d2)

;; "o"
(define-fun o5 () byte
  (get d2 31))

;; "get'result'unused"
(define-fun getqtresultqtunused1 () byte
  o5)

(declare-const o6 (_ BitVec 8))

;; "Ensures"
(assert (= (to_rep o5) o6))

;; "to_rep'result'unused"
(define-fun to_repqtresultqtunused1 () (_ BitVec 8)
  o6)

;; "o"
(define-fun o7 () (_ BitVec 8)
  (bvand o6 #x7F))

;; "bw_and'result'unused"
(define-fun bw_andqtresultqtunused1 () (_ BitVec 8)
  o7)

;; "o"
(define-fun o8 () (_ BitVec 8)
  (bvor o7 #x40))

;; "bw_or'result'unused"
(define-fun bw_orqtresultqtunused () (_ BitVec 8)
  o8)

(declare-const o9 byte)

;; "Ensures"
(assert (= (to_rep o9) o8))

;; "of_rep'result'unused"
(define-fun of_repqtresultqtunused1 () byte
  o9)

;; "map__content'result'unused"
(define-fun map__contentqtresultqtunused5 () map1
  d2)

;; "o"
(define-fun o10 () map1
  (set d2 31 o9))

;; "set'result'unused"
(define-fun setqtresultqtunused1 () map1
  o10)

(declare-const d3 map1)

;; "d'unused"
(define-fun dqtunused3 () map__ref
  (map__refqtmk d3))

;; "H"
(assert (= d3 o10))

;; "Assert"
(assert
  (=> (<= 0 31) (and (and (<= 0 0) (<= 0 63)) (and (<= 0 31) (<= 31 63)))))

;; "map__content'result'unused"
(define-fun map__contentqtresultqtunused6 () map1
  d3)

;; "temp___1464"
(define-fun temp___1464 () map1
  (slice d3 0 31))

;; "slice'result'unused"
(define-fun sliceqtresultqtunused () map1
  temp___1464)

;; "o"
(define-fun o11 () map3
  (scalarbase temp___1464))

;; "H"
(assert (scalarbase__function_guard o11 temp___1464))

;; "H"
(assert (dynamic_invariant2 o11 true false true true))

;; "scalarbase'result'unused"
(define-fun scalarbaseqtresultqtunused () map3
  o11)

;; "o"
(define-fun o12 () map1
  (pack o11))

;; "H"
(assert (pack__function_guard o12 o11))

;; "H"
(assert (has_bounds o12 0 31))

;; "pack'result'unused"
(define-fun packqtresultqtunused () map1
  o12)

(declare-const lpk1 map1)

;; "lpk'unused"
(define-fun lpkqtunused1 () map__ref
  (map__refqtmk lpk1))

;; "H"
(assert (= lpk1 o12))

;; "o"
(define-fun o13 () us_split_fields
  (us_split_fieldsqtmk pk__split_fields))

;; "__split_fields__content'result'unused"
(define-fun us_split_fields__contentqtresultqtunused () us_split_fields
  o13)

;; "__rep'mk'result'unused"
(define-fun us_repqtmkqtresultqtunused () us_rep
  (us_repqtmk o13))

;; "_q 'unused"
(define-fun usq_qtunused () us_split_fields
  o13)

;; "__split_fields'result'unused"
(define-fun us_split_fieldsqtresultqtunused () us_split_fields
  o13)

;; "map__content'result'unused"
(define-fun map__contentqtresultqtunused7 () map1
  lpk1)

;; "o"
(define-fun o14 () us_split_fields
  (us_split_fieldsqtmk lpk1))

;; "__split_fields'mk'result'unused"
(define-fun us_split_fieldsqtmkqtresultqtunused () us_split_fields
  o14)

;; "__rep'mk'result'unused"
(define-fun us_repqtmkqtresultqtunused1 () us_rep
  (us_repqtmk o14))

;; "__split_fields'result'unused"
(define-fun us_split_fieldsqtresultqtunused1 () us_split_fields
  o14)

;; "o"
(define-fun o15 () us_split_fields2
  (us_split_fieldsqtmk1 sk__split_fields))

;; "__split_fields__content'result'unused"
(define-fun us_split_fields__contentqtresultqtunused1 () us_split_fields2
  o15)

;; "__rep'mk'result'unused"
(define-fun us_repqtmkqtresultqtunused2 () us_rep1
  (us_repqtmk1 o15))

;; "_q 'unused"
(define-fun usq_qtunused1 () us_split_fields2
  o15)

;; "__split_fields'result'unused"
(define-fun us_split_fieldsqtresultqtunused2 () us_split_fields2
  o15)

;; "o"
(define-fun o16 () Int
  (length 0 31))

;; "length'result'unused"
(define-fun lengthqtresultqtunused () Int
  o16)

;; "o"
(define-fun o17 () Int
  (length 0 31))

;; "length'result'unused"
(define-fun lengthqtresultqtunused1 () Int
  o17)

;; "o"
(define-fun o18 () Int
  (+ o17 o16))

;; "infix +'result'unused"
(define-fun infix_plqtresultqtunused () Int
  o18)

;; "o"
(define-fun o19 () Int
  (+ 0 o18))

;; "infix +'result'unused"
(define-fun infix_plqtresultqtunused1 () Int
  o19)

;; "o"
(define-fun o20 () Int
  (- o19 1))

;; "infix -'result'unused"
(define-fun infix_mnqtresultqtunused () Int
  o20)

;; "Ensures"
(assert (in_range1 o20))

;; "range_check_'result'unused"
(define-fun range_check_qtresultqtunused () Int
  o20)

;; "o"
(define-fun o21 () Int
  (length 0 31))

;; "length'result'unused"
(define-fun lengthqtresultqtunused2 () Int
  o21)

;; "o"
(define-fun o22 () Int
  (+ 2147483647 o21))

;; "infix +'result'unused"
(define-fun infix_plqtresultqtunused2 () Int
  o22)

;; "map__content'result'unused"
(define-fun map__contentqtresultqtunused8 () map1
  lpk1)

;; "o"
(define-fun o23 () map1
  (concat1 sk_raw 0 31 lpk1 0 31 o22))

;; "concat'result'unused"
(define-fun concatqtresultqtunused () map1
  o23)

;; "temp___1471"
(define-fun temp___1471 () us_t
  (of_array o23 0 o20))

;; "of_array'result'unused"
(define-fun of_arrayqtresultqtunused1 () us_t
  temp___1471)

;; "o"
(define-fun o24 () Int
  0)

;; "first'result'unused"
(define-fun firstqtresultqtunused () Int
  o24)

;; "o"
(define-fun o25 () map1
  o23)

;; "to_array'result'unused"
(define-fun to_arrayqtresultqtunused () map1
  o25)

;; "temp___1472"
(define-fun temp___1472 () map1
  (slide o25 o24 0))

;; "slide'result'unused"
(define-fun slideqtresultqtunused () map1
  temp___1472)

;; "H"
(assert (<= 0 o20))

;; Goal "def'vc"
;; File "sparknacl-sign.ads", line 14, characters 0-0
(assert
  (not (<= 0 63)))

(check-sat)
